benchmark_str_length/p2_10_3-1.dzn
Alphabet = {A,C,G,T};
ns = 10;
nc = 3;
sl = 10;
neighbours = [| I(A),I(G),I(C) | Null,Null,Null | I(A),Null,Null | I(C),I(G),Null | I(C),Null,Null | I(T),Null,Null | I(C),Null,Null | I(G),I(A),I(C) | I(A),I(C),Null | I(A),I(T),Null |];
