benchmark_str_length/p2_10_3-1.txt
{
	"num_strings": 10,
	"alphabet": "ACGT",
	"strings": [
		"AGC",
		"",
		"A",
		"CG",
		"C",
		"T",
		"C",
		"GAC",
		"AC",
		"AT"
	],
	"str_length":[3,0,1,2,1,1,1,3,2,2]
}